c array.sh: path:     /data/qbf/qbf20/PCNF/trivial_query64_1344n.qdimacs
c array.sh: name:     trivial_query64_1344n
c array.sh: task:     110
c array.sh: host:     c3n19
c array.sh: uname:    Linux c3n19 4.15.0-135-generic #139-Ubuntu SMP Mon Jan 18 17:38:24 UTC 2021 x86_64 x86_64 x86_64 GNU/Linux
c array.sh: start:    Thu Feb 18 10:08:08 CET 2021
c array.sh: noturbo:  1
c array.sh: governor: 32 performance
c array.sh: tmp:      1%
c array.sh: unzipped: /tmp/local-unzipped-18838260-110-trivial_query64_1344n.cnf
*** qbfcert: using tmp directory:
*** qbfcert:   /tmp
trace-size: 686574
solving-res 20
proof-size: 495307
cert-size: 9142
cert-header: aag 1953 1821 0 37 37
merged-header: p cnf 22728 56576
merged-size: 881955
c ---- [ banner ] ------------------------------------------------------------
c
c KISSAT SAT Solver
c Copyright (c) 2019-2020 Armin Biere JKU Linz
c 
c Version 1.0.3 59813addcacc4d6fb880ebdd63685600475aa940
c gcc (Ubuntu 7.5.0-3ubuntu1~18.04) 7.5.0 -W -Wall -O3 -DNEMBEDDED -DNDEBUG -DNMETRICS -DNSTATISTICS
c Sun Feb 14 23:58:54 CET 2021 Linux cluster3 4.15.0-135-generic x86_64
c
c ---- [ parsing ] -----------------------------------------------------------
c
c opened and reading DIMACS file:
c 
c   /tmp/qbfcert_merged_cnf14260.cnf
c 
c parsed 'p cnf 22728 56576' header
c closing input after reading 881955 bytes (861 KB)
c finished parsing after 0.02 seconds
c
c ---- [ solving ] -----------------------------------------------------------
c
c  seconds reductions redundant irredundant
c         MB   restarts    trail     variables
c          level  conflicts   glue        remaining
c
c *  0.02  5 0  0  0   0   0 0% 0 56548 3664 16%
c {  0.02  5 0  0  0   0   0 0% 0 56548 3664 16%
c i  0.02  5 94  0  0   3   1 64% 0 56548 3663 16%
c i  0.02  5 90  0  0   6   2 61% 1 56548 3662 16%
c i  0.02  5 61  0  0   9   3 44% 1 56548 3639 16%
c }  0.02  5 61  0  0  11   3 43% 0 56548 3596 16%
c 0  0.02  5 61  0  0  11   3 43% 0 56548 3596 16%
c
c ---- [ result ] ------------------------------------------------------------
c
s UNSATISFIABLE
c
c ---- [ profiling ] ---------------------------------------------------------
c
c           0.02   93.07 %  parse
c           0.00    6.18 %  search
c           0.00    5.75 %  focused
c           0.00    0.00 %  simplify
c =============================================
c           0.02  100.00 %  total
c
c ---- [ statistics ] --------------------------------------------------------
c
c conflicts:                               11              623.69 per second
c decisions:                              334               30.36 per conflict
c propagations:                         25950          1471339    per second
c
c ---- [ resources ] ---------------------------------------------------------
c
c maximum-resident-set-size:          5652480 bytes          5 MB
c process-time:                             0s               0.02 seconds
c
c ---- [ shutting down ] -----------------------------------------------------
c
c exit 20
*** qbfcert: VALID
c array.sh: end:      Thu Feb 18 10:08:08 CET 2021
